
Gurobi 11.0.0 (linux64) logging started Mon Jul 22 17:06:54 2024

Set parameter LogFile to value "/lustre1/scratch/348/vsc34888/JointResearch/05.Models/06.Benchmarking/M.Random_forest/RTS24_mod2_ByStages_nc400/openStarNet_RTS24_mod2_ByStages_nc400.log"
Set parameter Method to value 2
Set parameter MIPFocus to value 1
Set parameter Presolve to value 2
Set parameter RINS to value 100
Set parameter MIPGap to value 0.01
Set parameter Threads to value 36
Set parameter TimeLimit to value 259200
Set parameter IterationLimit to value 760000000
Gurobi Optimizer version 11.0.0 build v11.0.0rc2 (linux64 - "Rocky Linux 8.9 (Green Obsidian)")

CPU model: Intel(R) Xeon(R) Gold 6240 CPU @ 2.60GHz, instruction set [SSE2|AVX|AVX2|AVX512]
Thread count: 36 physical cores, 36 logical processors, using up to 36 threads

Optimize a model with 142003 rows, 95812 columns and 387056 nonzeros
Model fingerprint: 0x7b764294
Variable types: 95791 continuous, 21 integer (21 binary)
Coefficient statistics:
  Matrix range     [1e-03, 3e+02]
  Objective range  [1e+00, 1e+00]
  Bounds range     [3e-05, 3e+00]
  RHS range        [3e-05, 3e+00]
Presolve removed 84565 rows and 48603 columns
Presolve time: 0.59s
Presolved: 57438 rows, 47209 columns, 207390 nonzeros
Variable types: 47188 continuous, 21 integer (21 binary)
Root relaxation presolved: 57438 rows, 47209 columns, 207390 nonzeros

Root barrier log...

Ordering time: 0.02s

Barrier statistics:
 Dense cols : 21
 AA' NZ     : 3.853e+05
 Factor NZ  : 1.123e+06 (roughly 50 MB of memory)
 Factor Ops : 2.576e+07 (less than 1 second per iteration)
 Threads    : 35

                  Objective                Residual
Iter       Primal          Dual         Primal    Dual     Compl     Time
   0   6.58224380e+05 -1.10770235e+08  5.26e+00 5.35e+01  2.32e+03     1s
   1   1.03830653e+05 -2.85387233e+07  6.90e-01 1.72e-08  3.21e+02     1s
   2   4.25266138e+04 -1.59123097e+07  1.82e-01 1.13e-08  1.38e+02     1s
   3   2.14208258e+04 -1.45550339e+06  5.73e-03 4.11e-10  1.12e+01     1s
   4   1.25449214e+04 -1.87275713e+05  2.09e-04 4.75e-11  1.49e+00     1s
   5   4.59110567e+03 -4.79525235e+04  3.52e-05 1.12e-11  3.93e-01     1s
   6   1.34851830e+03 -1.02012870e+04  6.62e-06 2.11e-12  8.63e-02     1s
   7   5.79304615e+02 -2.95475413e+03  1.65e-06 6.00e-13  2.64e-02     1s
   8   3.12922263e+02 -9.62465360e+02  5.88e-07 4.55e-13  9.53e-03     1s
   9   2.11851021e+02 -4.71812330e+02  3.17e-07 4.55e-13  5.11e-03     1s
  10   1.30113364e+02 -1.49259947e+02  1.31e-07 4.55e-13  2.09e-03     1s
  11   8.95526257e+01 -2.58526610e+01  5.83e-08 2.27e-13  8.63e-04     1s
  12   7.44076248e+01  2.29893333e+01  3.45e-08 4.55e-13  3.84e-04     1s
  13   7.02596125e+01  2.97307356e+01  2.83e-08 2.27e-13  3.03e-04     1s
  14   6.56791065e+01  3.20206421e+01  2.15e-08 4.55e-13  2.52e-04     1s
  15   6.15369993e+01  3.55146975e+01  1.50e-08 4.55e-13  1.95e-04     1s
  16   5.98642022e+01  3.80613071e+01  1.25e-08 4.55e-13  1.63e-04     1s
  17   5.76009677e+01  4.26540781e+01  9.31e-09 2.27e-13  1.12e-04     1s
  18   5.64451914e+01  4.35585614e+01  7.61e-09 4.55e-13  9.63e-05     1s
  19   5.56287610e+01  4.51346949e+01  6.34e-09 2.27e-13  7.85e-05     1s
  20   5.50985534e+01  4.63584483e+01  5.66e-09 4.55e-13  6.53e-05     1s
  21   5.48176622e+01  4.77473185e+01  5.25e-09 2.27e-13  5.29e-05     1s
  22   5.37455078e+01  4.88039259e+01  3.56e-09 2.27e-13  3.69e-05     2s
  23   5.30125901e+01  4.94840550e+01  2.41e-09 2.27e-13  2.64e-05     2s
  24   5.27405945e+01  4.99908005e+01  2.02e-09 4.55e-13  2.06e-05     2s
  25   5.24256038e+01  5.04312441e+01  1.54e-09 2.27e-13  1.49e-05     2s
  26   5.21083696e+01  5.07591636e+01  1.02e-09 2.27e-13  1.01e-05     2s
  27   5.19206534e+01  5.09428907e+01  6.99e-10 2.27e-13  7.31e-06     2s
  28   5.17496532e+01  5.11361408e+01  4.00e-10 4.55e-13  4.59e-06     2s
  29   5.16301496e+01  5.12760753e+01  1.96e-10 2.27e-13  2.65e-06     2s
  30   5.16021340e+01  5.12911834e+01  1.52e-10 2.27e-13  2.32e-06     2s
  31   5.15849201e+01  5.13358918e+01  1.25e-10 2.27e-13  1.86e-06     2s
  32   5.15664997e+01  5.13768733e+01  9.46e-11 2.27e-13  1.42e-06     2s
  33   5.15392994e+01  5.14137209e+01  8.60e-11 2.27e-13  9.39e-07     2s
  34   5.15179769e+01  5.14496084e+01  2.93e-10 4.55e-13  5.11e-07     2s
  35   5.15125058e+01  5.14590297e+01  2.85e-10 4.55e-13  4.00e-07     2s
  36   5.15110974e+01  5.14875266e+01  2.00e-10 2.27e-13  1.76e-07     2s
  37   5.15106772e+01  5.14891724e+01  1.92e-10 2.27e-13  1.61e-07     2s
  38   5.15085753e+01  5.15013478e+01  1.25e-10 2.27e-13  5.40e-08     2s
  39   5.15078683e+01  5.15068456e+01  2.04e-11 4.55e-13  7.65e-09     2s
  40   5.15076356e+01  5.15071947e+01  1.12e-10 2.27e-13  3.30e-09     2s
  41   5.15076132e+01  5.15072833e+01  8.12e-11 4.55e-13  2.47e-09     2s
  42   5.15075476e+01  5.15073862e+01  1.30e-10 4.55e-13  1.21e-09     2s
  43   5.15075365e+01  5.15074685e+01  3.20e-10 1.14e-12  5.08e-10     2s
  44   5.15075356e+01  5.15075155e+01  2.72e-10 5.59e-13  1.50e-10     2s
  45   5.15075316e+01  5.15075296e+01  2.26e-10 2.27e-13  1.48e-11     2s
  46   5.15075315e+01  5.15075315e+01  3.90e-10 4.55e-13  1.89e-14     2s

Barrier solved model in 46 iterations and 2.08 seconds (1.88 work units)
Optimal objective 5.15075315e+01


Root relaxation: objective 5.150753e+01, 8755 iterations, 1.83 seconds (1.51 work units)

    Nodes    |    Current Node    |     Objective Bounds      |     Work
 Expl Unexpl |  Obj  Depth IntInf | Incumbent    BestBd   Gap | It/Node Time

     0     0   51.50753    0   19          -   51.50753      -     -    3s
H    0     0                     102.1969465   51.50753  49.6%     -    4s
H    0     0                      91.8838636   52.65376  42.7%     -   10s
     0     0   52.65376    0   14   91.88386   52.65376  42.7%     -   10s
H    0     0                      88.5229665   52.73982  40.4%     -   13s
     0     0   52.73982    0   13   88.52297   52.73982  40.4%     -   13s
     0     0   52.74611    0   11   88.52297   52.74611  40.4%     -   14s
     0     0   52.74825    0   11   88.52297   52.74825  40.4%     -   15s
     0     0   52.96632    0   12   88.52297   52.96632  40.2%     -   16s
     0     0   52.98024    0   12   88.52297   52.98024  40.2%     -   17s
     0     0   52.99345    0   15   88.52297   52.99345  40.1%     -   17s
H    0     0                      85.2672334   52.99561  37.8%     -   17s
     0     0   52.99561    0   12   85.26723   52.99561  37.8%     -   17s
     0     0   52.99599    0   12   85.26723   52.99599  37.8%     -   18s
     0     0   53.01736    0   15   85.26723   53.01736  37.8%     -   19s
     0     0   53.23770    0   14   85.26723   53.23770  37.6%     -   21s
     0     0   53.23770    0   17   85.26723   53.23770  37.6%     -   21s
     0     0   53.23770    0   14   85.26723   53.23770  37.6%     -   21s
     0     0   53.23770    0   14   85.26723   53.23770  37.6%     -   22s
     0     0   53.23770    0   14   85.26723   53.23770  37.6%     -   22s
     0     0   53.23770    0   14   85.26723   53.23770  37.6%     -   22s
     0     0   53.23770    0   12   85.26723   53.23770  37.6%     -   24s
H    0     0                      78.7944704   53.23770  32.4%     -   24s
     0     0   53.23770    0   14   78.79447   53.23770  32.4%     -   24s
     0     0   53.23770    0   14   78.79447   53.23770  32.4%     -   25s
     0     0   53.23770    0   14   78.79447   53.23770  32.4%     -   28s
H    0     0                      70.7599764   53.23770  24.8%     -  233s
     0     2   53.23770    0   14   70.75998   53.23770  24.8%     -  235s
     3     8   54.16770    2   14   70.75998   53.23770  24.8%  5072  241s
    15    32   54.49842    4   16   70.75998   54.44088  23.1%  3736  248s
    31    60   54.69235    5   15   70.75998   54.51756  23.0%  3900  256s
    63    94   56.54577    6   15   70.75998   54.76934  22.6%  4455  269s
    99   120   58.71430    7   14   70.75998   56.48521  20.2%  4057  328s
H  104   120                      70.6108764   56.48521  20.0%  4019  328s
   135   146   60.22674    7   14   70.61088   56.48647  20.0%  3752  332s
   171   166   60.78410    8   13   70.61088   56.51164  20.0%  3644  336s
   207   192   64.24156    9   12   70.61088   56.51164  20.0%  3412  341s
   251   202     cutoff    9        70.61088   56.51164  20.0%  3289  346s
   297   209   67.75935   10   11   70.61088   56.51164  20.0%  3211  351s
   350   218     cutoff   10        70.61088   56.51164  20.0%  3081  357s
   393   220     cutoff   11        70.61088   56.51164  20.0%  3145  362s
   453   235     cutoff   11        70.61088   57.32934  18.8%  3064  366s
   511   252   64.38678    8   13   70.61088   57.32934  18.8%  2997  371s
   572   262   64.14754    8   13   70.61088   57.32934  18.8%  2913  378s
   642   257   66.52829    9   12   70.61088   57.32934  18.8%  2844  384s
   711   280   67.33216   10   11   70.61088   57.32934  18.8%  2771  388s
   774   275     cutoff   11        70.61088   57.32934  18.8%  2719  393s
   855   287     cutoff   13        70.61088   57.32934  18.8%  2638  418s
   905   298   67.78562   10   11   70.61088   57.32934  18.8%  2619  425s
  1006   297     cutoff   11        70.61088   57.32934  18.8%  2526  431s
  1116   295     cutoff   11        70.61088   58.40322  17.3%  2454  472s
  1180   314   63.65744    8   11   70.61088   58.40322  17.3%  2435  479s
  1287   304   67.21439   10   11   70.61088   58.40322  17.3%  2373  487s
  1423   324   69.25118   12    9   70.61088   58.40322  17.3%  2311  494s
  1546   315     cutoff   15        70.61088   59.98747  15.0%  2267  501s
  1694   316   70.28533   12    9   70.61088   61.52743  12.9%  2219  508s
  1829   313     cutoff   15        70.61088   61.61973  12.7%  2191  514s
  1961   326   67.40936    8   12   70.61088   63.21153  10.5%  2160  522s
  2123   314     cutoff   12        70.61088   63.21153  10.5%  2107  529s
  2305   310   70.02732   10   10   70.61088   63.82897  9.60%  2054  535s
  2506   298     cutoff   12        70.61088   65.02288  7.91%  1990  542s
  2704   215     cutoff   12        70.61088   65.24505  7.60%  1945  548s
  2926   180   69.59242   11   10   70.61088   65.87031  6.71%  1880  555s
  3131    89   69.17052   15    6   70.61088   67.67555  4.16%  1838  560s
  3356    34     cutoff   13        70.61088   68.25722  3.33%  1774  565s

Cutting planes:
  Gomory: 3
  Implied bound: 1
  MIR: 1558
  Relax-and-lift: 49

Explored 3548 nodes (6162552 simplex iterations) in 569.70 seconds (729.66 work units)
Thread count was 36 (of 36 available processors)

Solution count 7: 70.6109 70.76 78.7945 ... 102.197

Optimal solution found (tolerance 1.00e-02)
Best objective 7.061087641178e+01, best bound 7.061087641178e+01, gap 0.0000%

Gurobi 11.0.0 (linux64) logging started Mon Jul 22 17:17:32 2024

Set parameter LogFile to value "/lustre1/scratch/348/vsc34888/JointResearch/05.Models/06.Benchmarking/M.Random_forest/RTS24_mod2_ByStages_nc400/openStarNet_RTS24_mod2_ByStages_nc400.log"
Set parameter Method to value 2
Set parameter MIPFocus to value 1
Set parameter Presolve to value 2
Set parameter RINS to value 100
Set parameter MIPGap to value 0.01
Set parameter Threads to value 36
Set parameter TimeLimit to value 259200
Set parameter IterationLimit to value 760000000
Gurobi Optimizer version 11.0.0 build v11.0.0rc2 (linux64 - "Rocky Linux 8.9 (Green Obsidian)")

CPU model: Intel(R) Xeon(R) Gold 6240 CPU @ 2.60GHz, instruction set [SSE2|AVX|AVX2|AVX512]
Thread count: 36 physical cores, 36 logical processors, using up to 36 threads

Optimize a model with 142003 rows, 95791 columns and 353435 nonzeros
Model fingerprint: 0x7cb05c56
Coefficient statistics:
  Matrix range     [1e-03, 3e+02]
  Objective range  [1e+00, 1e+00]
  Bounds range     [3e-05, 3e+00]
  RHS range        [3e-05, 2e+01]
Presolve removed 118698 rows and 53787 columns
Presolve time: 0.17s
Presolved: 23305 rows, 42404 columns, 103049 nonzeros

Ordering time: 0.00s

Barrier statistics:
 AA' NZ     : 5.757e+04
 Factor NZ  : 1.993e+05 (roughly 20 MB of memory)
 Factor Ops : 2.561e+06 (less than 1 second per iteration)
 Threads    : 36

                  Objective                Residual
Iter       Primal          Dual         Primal    Dual     Compl     Time
   0   3.19298807e+06 -5.16082490e+07  4.12e+01 6.01e+01  1.07e+04     0s
   1   2.20809614e+05 -3.73962689e+07  2.40e+00 1.35e-12  1.04e+03     0s
   2   5.38352218e+04 -9.33439575e+06  4.12e-01 1.60e-12  1.83e+02     0s
   3   2.56806115e+04 -1.28743576e+06  1.72e-02 9.23e-13  1.92e+01     0s
   4   1.75488123e+04 -3.77414773e+05  1.20e-03 9.09e-13  5.54e+00     0s
   5   9.26262508e+03 -7.75009606e+04  1.91e-05 4.38e-13  1.21e+00     0s
   6   3.53346513e+03 -2.46345705e+04  4.29e-06 6.65e-13  3.94e-01     0s
   7   1.23573110e+03 -6.25343965e+03  8.15e-07 2.27e-13  1.05e-01     0s
   8   5.54535560e+02 -2.37673878e+03  1.85e-07 2.27e-13  4.10e-02     0s
   9   3.02449869e+02 -7.09760619e+02  3.68e-08 2.27e-13  1.41e-02     0s
  10   2.06104444e+02 -2.92098284e+02  1.74e-08 1.14e-13  6.96e-03     0s
  11   1.25639047e+02 -5.32814193e+01  5.24e-09 2.27e-13  2.50e-03     0s
  12   8.87561869e+01  4.63375017e+01  1.45e-09 2.27e-13  5.93e-04     0s
  13   7.60215337e+01  6.37040780e+01  3.90e-10 2.27e-13  1.72e-04     0s
  14   7.31678490e+01  6.79827682e+01  1.80e-10 3.41e-13  7.25e-05     0s
  15   7.15910148e+01  6.96408085e+01  1.59e-10 2.27e-13  2.73e-05     0s
  16   7.10481906e+01  7.02172857e+01  6.99e-11 2.27e-13  1.16e-05     0s
  17   7.07858234e+01  7.04422200e+01  4.40e-11 2.27e-13  4.80e-06     0s
  18   7.06299502e+01  7.06002282e+01  1.40e-10 2.27e-13  4.15e-07     0s
  19   7.06123025e+01  7.06084109e+01  1.24e-10 2.27e-13  5.44e-08     0s
  20   7.06109052e+01  7.06106765e+01  1.32e-10 1.14e-13  3.20e-09     0s
  21   7.06108765e+01  7.06108763e+01  1.39e-10 2.27e-13  2.85e-12     0s
  22   7.06108764e+01  7.06108764e+01  1.09e-12 2.27e-13  2.85e-15     0s

Barrier solved model in 22 iterations and 0.46 seconds (0.44 work units)
Optimal objective 7.06108764e+01

Crossover log...

    5046 DPushes remaining with DInf 0.0000000e+00                 0s
       0 DPushes remaining with DInf 0.0000000e+00                 0s

    1225 PPushes remaining with PInf 0.0000000e+00                 0s
       0 PPushes remaining with PInf 0.0000000e+00                 1s

  Push phase complete: Pinf 0.0000000e+00, Dinf 1.1683272e-13      1s

Iteration    Objective       Primal Inf.    Dual Inf.      Time
    1285    7.0610876e+01   0.000000e+00   0.000000e+00      1s

Use crossover to convert LP symmetric solution to basic solution...
Crossover log...

       0 DPushes remaining with DInf 0.0000000e+00                 1s

     898 PPushes remaining with PInf 0.0000000e+00                 1s
       0 PPushes remaining with PInf 0.0000000e+00                 1s

  Push phase complete: Pinf 0.0000000e+00, Dinf 1.8048845e-13      1s

Iteration    Objective       Primal Inf.    Dual Inf.      Time
    2191    7.0610876e+01   0.000000e+00   0.000000e+00      1s

Solved in 2191 iterations and 0.71 seconds (0.58 work units)
Optimal objective  7.061087641e+01
